! pbe0 sto-3g Direct FREQ

%maxcore 2560
%pal nprocs 4 end

* xyz 0 1
H      0.52880000     0.16100000     0.93590000 
C      0.00000000     0.00000000     0.00000000 
H      0.20510000     0.82400000    -0.67860000 
H      0.33450000    -0.93140000    -0.44960000 
H     -1.06850000    -0.05370000     0.19210000 
*
